; benchmark generated from python API
(set-info :status unknown)
(declare-datatypes ((RealState 0)) (((RMk1 (rval1 Real)) (RMk2 (rval2 Real)))))
 (assert
 (forall ((|v11:0| Real) )(forall ((|v10:1| Real) )(forall ((|v9:2| Real) )(forall ((|v8:3| Real) )(exists ((|v7:4_st| RealState) (val!3420 Real) )(exists ((|v6:5_st| RealState) (val!3421 Real) )(exists ((|v5:6_st| RealState) (val!3422 Real) )(exists ((|v4:7_st| RealState) (val!3423 Real) )(forall ((|v3:8| Real) )(forall ((|v2:9| Real) )(forall ((|v1:10| Real) )(forall ((|v0:11| Real) )(let ((?x1573 (- 5.0)))
 (let ((?x3044 (* 6.0 |v3:8|)))
 (let ((?x1902 (+ (+ (* (- 20.0) |v11:0|) (* (- 15.0) |v11:0|)) (* 11.0 (rval2 |v7:4_st|)))))
 (let ((?x588 (- 6.0)))
 (let ((?x966 (rval2 |v6:5_st|)))
 (let ((?x101 (- 8.0)))
 (let ((?x1849 (* ?x101 ?x966)))
 (let (($x2896 (<= (+ (+ (+ (* (- 15.0) |v1:10|) (* 9.0 |v9:2|)) |v2:9|) ?x1849) ?x588)))
 (let ((?x954 (* 7.0 |v1:10|)))
 (let ((?x417 (+ (+ (+ (* 11.0 |v10:1|) (* (- 12.0) ?x966)) (* (- 12.0) |v11:0|)) ?x954)))
 (let ((?x1511 (+ (+ (+ (* (- 10.0) |v8:3|) (* (- 4.0) |v3:8|)) (* 20.0 |v8:3|)) (* (- 20.0) |v10:1|))))
 (let (($x2425 (or (or (<= ?x1511 13.0) (<= ?x417 3.0)) (and $x2896 (<= (+ ?x1902 ?x3044) ?x1573)))))
 (let ((?x1672 (- 11.0)))
 (let ((?x3118 (rval2 |v7:4_st|)))
 (let ((?x2409 (- 15.0)))
 (let ((?x2450 (* ?x2409 ?x3118)))
 (let ((?x608 (+ (+ (* 14.0 |v9:2|) (* (- 1.0) |v8:3|)) (* (- 16.0) (rval2 |v4:7_st|)))))
 (let ((?x2510 (* 20.0 |v9:2|)))
 (let ((?x468 (+ (+ (+ (* 9.0 |v10:1|) (* ?x2409 |v3:8|)) (* 16.0 (rval2 |v5:6_st|))) ?x2510)))
 (let ((?x2142 (- 10.0)))
 (let ((?x2998 (* ?x2142 |v10:1|)))
 (let ((?x3179 (+ (+ (+ (* (- 14.0) |v11:0|) (* 4.0 |v11:0|)) (* 4.0 |v1:10|)) ?x2998)))
 (let ((?x2468 (+ (+ (+ (* 19.0 |v1:10|) (* ?x1672 |v2:9|)) (* (- 7.0) ?x966)) (* ?x588 ?x966))))
 (let (($x1873 (or (and (<= ?x2468 16.0) (<= ?x3179 20.0)) (and (<= ?x468 14.0) (<= (+ ?x608 ?x2450) ?x1672)))))
 (let ((?x1955 (- 7.0)))
 (let ((?x132 (* ?x1955 |v0:11|)))
 (let (($x2487 (<= (+ (+ (+ (* (- 17.0) |v0:11|) (* 12.0 |v9:2|)) (* ?x101 |v11:0|)) ?x132) 8.0)))
 (let ((?x1922 (- 13.0)))
 (let (($x2733 (<= (+ (+ (+ (* ?x1955 ?x966) (* (- 17.0) |v0:11|)) ?x2450) (* ?x101 |v3:8|)) ?x1922)))
 (let ((?x337 (rval2 |v5:6_st|)))
 (let ((?x1345 (* ?x1672 ?x337)))
 (let ((?x2843 (+ (+ (+ (* ?x1672 |v0:11|) (* (- 16.0) |v1:10|)) (* ?x1573 (rval2 |v4:7_st|))) ?x1345)))
 (let ((?x2127 (- 19.0)))
 (let ((?x2488 (* 15.0 |v1:10|)))
 (let (($x1876 (<= (+ (+ (+ (* 3.0 |v10:1|) (* 9.0 |v2:9|)) (* 3.0 |v2:9|)) ?x2488) ?x2127)))
 (let ((?x1598 (- 3.0)))
 (let ((?x3048 (+ (+ (+ (* 4.0 ?x3118) (* 12.0 ?x3118)) (* ?x1922 |v1:10|)) (* (- 1.0) ?x3118))))
 (let ((?x747 (+ (+ (+ (* 8.0 |v3:8|) (* 8.0 |v8:3|)) (* (- 16.0) ?x966)) (* (- 20.0) |v8:3|))))
 (let ((?x3085 (* 20.0 |v8:3|)))
 (let (($x1555 (<= (+ (+ (+ (* 9.0 ?x966) (* ?x2127 |v8:3|)) (* 7.0 |v2:9|)) ?x3085) ?x588)))
 (let (($x2269 (or (or (and $x1555 (<= ?x747 20.0)) (or (<= ?x3048 ?x1598) $x1876)) (or (or (<= ?x2843 ?x2142) $x2733) $x2487))))
 (let ((?x2684 (+ (+ (+ (* (- 4.0) ?x3118) (* 5.0 (rval2 |v4:7_st|))) (* ?x588 |v2:9|)) (* ?x2127 (rval2 |v4:7_st|)))))
 (let ((?x398 (- 17.0)))
 (let ((?x1424 (+ (+ (+ (* 10.0 |v9:2|) (* ?x1672 (rval2 |v4:7_st|))) (* ?x101 |v1:10|)) (* 7.0 |v8:3|))))
 (let ((?x181 (+ (+ (+ (* ?x1573 ?x337) (* ?x588 |v8:3|)) (* ?x2142 |v3:8|)) (* ?x398 |v8:3|))))
 (let ((?x1627 (- 16.0)))
 (let ((?x2235 (* 17.0 |v2:9|)))
 (let (($x2990 (<= (+ (+ (+ (* ?x2127 ?x3118) (* ?x1922 |v11:0|)) (* 7.0 |v10:1|)) ?x2235) ?x1627)))
 (let (($x2156 (or (and $x2990 (<= ?x181 8.0)) (and (<= ?x1424 ?x398) (<= ?x2684 6.0)))))
 (let ((?x2340 (* 15.0 ?x3118)))
 (let ((?x2071 (* ?x398 |v1:10|)))
 (let ((?x2598 (+ (+ (* (- 12.0) |v3:8|) (* 17.0 |v1:10|)) ?x2071)))
 (let ((?x712 (- 9.0)))
 (let (($x2072 (<= (+ (+ (+ ?x2071 (* ?x588 |v2:9|)) (* (- 20.0) |v9:2|)) (* 8.0 ?x966)) ?x712)))
 (let ((?x2579 (* 11.0 ?x337)))
 (let (($x2737 (<= (+ (+ (+ (* 0.0 |v9:2|) ?x3118) (* (- 4.0) |v3:8|)) ?x2579) ?x712)))
 (let (($x351 (<= (+ (+ (+ (* ?x1922 |v10:1|) ?x1849) (* ?x1598 ?x337)) (* ?x1627 ?x966)) ?x2142)))
 (let ((?x2813 (* 2.0 |v3:8|)))
 (let ((?x1004 (+ (+ (+ (* 16.0 (rval2 |v4:7_st|)) (* 6.0 ?x337)) (* ?x2127 |v1:10|)) ?x2813)))
 (let ((?x2511 (- 4.0)))
 (let (($x252 (<= (+ (+ (+ (* 20.0 |v1:10|) (* ?x398 |v2:9|)) (* ?x2511 |v2:9|)) ?x2340) ?x2511)))
 (let ((?x411 (* ?x1922 |v10:1|)))
 (let ((?x2287 (+ (+ (+ (* 8.0 |v11:0|) (* ?x1955 |v10:1|)) (* ?x2409 (rval2 |v4:7_st|))) ?x411)))
 (let ((?x2793 (* ?x2127 |v0:11|)))
 (let ((?x479 (+ (+ (+ (* ?x588 (rval2 |v4:7_st|)) (* (- 12.0) |v10:1|)) (* 8.0 ?x337)) ?x2793)))
 (let (($x205 (or (or (<= ?x479 ?x101) (<= ?x2287 10.0)) (and $x252 (<= ?x1004 12.0)))))
 (let ((?x1709 (rval2 |v4:7_st|)))
 (let ((?x2574 (* ?x1573 ?x1709)))
 (let (($x2119 (<= (+ (+ (+ (* 18.0 ?x3118) (* 9.0 |v8:3|)) (* ?x2511 ?x3118)) ?x2574) 17.0)))
 (let ((?x2771 (+ (+ (+ (* (- 14.0) |v10:1|) (* 13.0 ?x1709)) (* ?x588 ?x1709)) (* ?x1573 |v11:0|))))
 (let ((?x756 (- 2.0)))
 (let ((?x877 (* 13.0 |v2:9|)))
 (let ((?x1794 (+ (+ (+ (* (- 14.0) |v3:8|) (* (- 12.0) ?x337)) (* 10.0 ?x1709)) ?x877)))
 (let (($x412 (and (<= (+ (+ (+ ?x2340 (* ?x2511 |v3:8|)) (* 9.0 ?x337)) ?x1709) ?x1627) (<= ?x1794 ?x756))))
 (let (($x1502 (and (and (and $x412 (or (<= ?x2771 8.0) $x2119)) $x205) (or (and (or $x351 $x2737) (and $x2072 (<= (+ ?x2598 ?x2340) ?x1922))) $x2156))))
 (let ((?x3183 (+ (+ (+ (* (- 18.0) |v3:8|) (* 15.0 ?x1709)) (* (- 20.0) |v0:11|)) |v2:9|)))
 (let ((?x671 (+ (+ (+ (* ?x1922 ?x966) (* (- 14.0) |v1:10|)) (* ?x1627 |v3:8|)) (* (- 20.0) ?x3118))))
 (let (($x640 (<= (+ (+ (+ (* 16.0 ?x337) ?x2450) (* 7.0 |v9:2|)) (* 14.0 |v0:11|)) ?x398)))
 (let ((?x1184 (+ (+ (+ (* ?x1955 ?x3118) (* ?x2409 |v0:11|)) (* 8.0 |v10:1|)) (* 9.0 ?x1709))))
 (let ((?x1778 (- 14.0)))
 (let ((?x579 (+ (+ (+ (* 8.0 ?x1709) (* 7.0 ?x3118)) (* 10.0 |v10:1|)) (* ?x588 |v10:1|))))
 (let (($x2578 (<= (+ (+ (+ (* 12.0 |v0:11|) (* ?x1627 ?x3118)) |v11:0|) (* 15.0 ?x966)) 3.0)))
 (let ((?x2491 (+ (+ (+ (* 12.0 |v9:2|) (* ?x1598 |v11:0|)) (* 0.0 ?x1709)) (* ?x2142 |v11:0|))))
 (let ((?x495 (* 9.0 |v1:10|)))
 (let ((?x2541 (+ (+ (+ (* 14.0 |v1:10|) (* (- 12.0) ?x337)) (* 14.0 |v11:0|)) ?x495)))
 (let ((?x2794 (* 3.0 |v0:11|)))
 (let (($x1562 (<= (+ (+ (+ (* ?x2127 ?x337) (* ?x756 |v2:9|)) (* 7.0 |v11:0|)) ?x2794) ?x712)))
 (let (($x1848 (and (or (and $x1562 (<= ?x2541 14.0)) (and (<= ?x2491 8.0) $x2578)) (and (and (<= ?x579 ?x1778) (<= ?x1184 ?x1598)) (and $x640 (<= ?x671 ?x1922))))))
 (let ((?x3099 (- 12.0)))
 (let ((?x1040 (* ?x3099 |v2:9|)))
 (let (($x2475 (<= (+ (+ (+ (* 15.0 |v3:8|) (* ?x1922 ?x966)) (* 12.0 |v10:1|)) ?x1040) ?x1778)))
 (let ((?x755 (+ (+ (+ (* 11.0 ?x966) (* ?x2511 |v0:11|)) (* ?x712 ?x337)) (* ?x756 ?x1709))))
 (let ((?x2619 (* 7.0 |v10:1|)))
 (let (($x2092 (<= (+ (+ (+ (* ?x712 ?x337) (* 4.0 ?x3118)) (* 6.0 ?x1709)) ?x2619) 12.0)))
 (let (($x742 (<= (+ (+ (+ (* 16.0 |v11:0|) (* ?x101 |v8:3|)) ?x2998) (* ?x2409 |v9:2|)) ?x2142)))
 (let (($x1818 (<= (+ (+ (+ (* ?x1778 |v11:0|) (* 9.0 |v11:0|)) (* 6.0 |v10:1|)) ?x1709) ?x1955)))
 (let ((?x1198 (* 11.0 |v10:1|)))
 (let (($x1396 (<= (+ (+ (+ (* ?x588 ?x1709) (* ?x101 ?x337)) (* 2.0 |v2:9|)) ?x1198) 15.0)))
 (let ((?x238 (- 1.0)))
 (let ((?x2442 (* 3.0 ?x1709)))
 (let (($x703 (<= (+ (+ (+ (* 2.0 |v1:10|) (* ?x2142 |v8:3|)) (* 2.0 ?x337)) ?x2442) ?x238)))
 (let ((?x217 (- 20.0)))
 (let (($x542 (<= (+ (+ (+ (* 3.0 |v10:1|) (* ?x217 |v0:11|)) ?x1345) (* ?x1922 ?x1709)) ?x217)))
 (let (($x1938 (and (and (or $x542 $x703) (and $x1396 $x1818)) (and (or $x742 $x2092) (<= ?x755 18.0)))))
 (let (($x2215 (and (or (and $x1938 $x2475) (or $x1848 (<= ?x3183 0.0))) (or $x1502 (and $x2269 (and $x1873 $x2425))))))
 (let (($x3027 (not (= |v4:7_st| (RMk1 val!3423)))))
 (let (($x820 (not (= |v5:6_st| (RMk1 val!3422)))))
 (let (($x1286 (not (= |v6:5_st| (RMk1 val!3421)))))
 (let (($x2483 (not (= |v7:4_st| (RMk1 val!3420)))))
 (and $x2483 $x1286 $x820 $x3027 $x2215)))))))))))))))))))))))))))))))))))))))))))))))))))))))))))))))))))))))))))))))))))))))))))))))))))))))))))))))
 )
 )
 )
 )
 )
 )
 )
 )
 )
 )
 )
 )
(check-sat)
